NAME : n60w200.001.410.tour
COMMENT : Length = 410
COMMENT : Found by LKH [Keld Helsgaun] Tue May  2 05:19:06 2017
TYPE : TOUR
DIMENSION : 61
TOUR_SECTION
1
7
51
44
58
18
2
20
52
37
48
30
39
27
59
38
6
13
40
57
19
21
31
16
45
24
41
49
55
29
35
46
47
8
17
9
42
32
25
23
43
3
33
28
36
5
60
11
26
34
56
15
10
4
53
14
50
12
22
61
54
-1
EOF
